language Essence 1.3

letting bot_end be [6, 22, 21, 93, 92, 63, 118, 131, 47, 142, 78, 130, 94, 129, 18, 36, 134, 52; int(1..18)]
letting bot_start be [94, 137, 18, 12, 64, 74, 145, 53, 158, 97, 0, 71, 157, 57, 134, 54, 68, 133; int(1..18)]
letting bots be 18
letting buffer_col be 2
letting buffer_row be 2
letting corridor_size be 1
letting n_shelves_col be 4
letting n_shelves_row be 3
letting shelf_col_size be 2
letting shelf_row_size be 1
